c *********************************
c * Circuit generated by BenCGen
c *
c * Parity_333
c *
c * Ports with 1 gate(s): 1
c * Ports with 2 gate(s): 333
c * Total gates: 334
c *********************************
p cnf 667 1333
1 336 0
-1 -336 0
1 -335 0
336 -335 0
-1 -336 335 0
1 2 -337 0
-1 2 337 0
1 -2 337 0
-1 -2 -337 0
3 4 -338 0
-3 4 338 0
3 -4 338 0
-3 -4 -338 0
5 6 -339 0
-5 6 339 0
5 -6 339 0
-5 -6 -339 0
7 8 -340 0
-7 8 340 0
7 -8 340 0
-7 -8 -340 0
9 10 -341 0
-9 10 341 0
9 -10 341 0
-9 -10 -341 0
11 12 -342 0
-11 12 342 0
11 -12 342 0
-11 -12 -342 0
13 14 -343 0
-13 14 343 0
13 -14 343 0
-13 -14 -343 0
15 16 -344 0
-15 16 344 0
15 -16 344 0
-15 -16 -344 0
17 18 -345 0
-17 18 345 0
17 -18 345 0
-17 -18 -345 0
19 20 -346 0
-19 20 346 0
19 -20 346 0
-19 -20 -346 0
21 22 -347 0
-21 22 347 0
21 -22 347 0
-21 -22 -347 0
23 24 -348 0
-23 24 348 0
23 -24 348 0
-23 -24 -348 0
25 26 -349 0
-25 26 349 0
25 -26 349 0
-25 -26 -349 0
27 28 -350 0
-27 28 350 0
27 -28 350 0
-27 -28 -350 0
29 30 -351 0
-29 30 351 0
29 -30 351 0
-29 -30 -351 0
31 32 -352 0
-31 32 352 0
31 -32 352 0
-31 -32 -352 0
33 34 -353 0
-33 34 353 0
33 -34 353 0
-33 -34 -353 0
35 36 -354 0
-35 36 354 0
35 -36 354 0
-35 -36 -354 0
37 38 -355 0
-37 38 355 0
37 -38 355 0
-37 -38 -355 0
39 40 -356 0
-39 40 356 0
39 -40 356 0
-39 -40 -356 0
41 42 -357 0
-41 42 357 0
41 -42 357 0
-41 -42 -357 0
43 44 -358 0
-43 44 358 0
43 -44 358 0
-43 -44 -358 0
45 46 -359 0
-45 46 359 0
45 -46 359 0
-45 -46 -359 0
47 48 -360 0
-47 48 360 0
47 -48 360 0
-47 -48 -360 0
49 50 -361 0
-49 50 361 0
49 -50 361 0
-49 -50 -361 0
51 52 -362 0
-51 52 362 0
51 -52 362 0
-51 -52 -362 0
53 54 -363 0
-53 54 363 0
53 -54 363 0
-53 -54 -363 0
55 56 -364 0
-55 56 364 0
55 -56 364 0
-55 -56 -364 0
57 58 -365 0
-57 58 365 0
57 -58 365 0
-57 -58 -365 0
59 60 -366 0
-59 60 366 0
59 -60 366 0
-59 -60 -366 0
61 62 -367 0
-61 62 367 0
61 -62 367 0
-61 -62 -367 0
63 64 -368 0
-63 64 368 0
63 -64 368 0
-63 -64 -368 0
65 66 -369 0
-65 66 369 0
65 -66 369 0
-65 -66 -369 0
67 68 -370 0
-67 68 370 0
67 -68 370 0
-67 -68 -370 0
69 70 -371 0
-69 70 371 0
69 -70 371 0
-69 -70 -371 0
71 72 -372 0
-71 72 372 0
71 -72 372 0
-71 -72 -372 0
73 74 -373 0
-73 74 373 0
73 -74 373 0
-73 -74 -373 0
75 76 -374 0
-75 76 374 0
75 -76 374 0
-75 -76 -374 0
77 78 -375 0
-77 78 375 0
77 -78 375 0
-77 -78 -375 0
79 80 -376 0
-79 80 376 0
79 -80 376 0
-79 -80 -376 0
81 82 -377 0
-81 82 377 0
81 -82 377 0
-81 -82 -377 0
83 84 -378 0
-83 84 378 0
83 -84 378 0
-83 -84 -378 0
85 86 -379 0
-85 86 379 0
85 -86 379 0
-85 -86 -379 0
87 88 -380 0
-87 88 380 0
87 -88 380 0
-87 -88 -380 0
89 90 -381 0
-89 90 381 0
89 -90 381 0
-89 -90 -381 0
91 92 -382 0
-91 92 382 0
91 -92 382 0
-91 -92 -382 0
93 94 -383 0
-93 94 383 0
93 -94 383 0
-93 -94 -383 0
95 96 -384 0
-95 96 384 0
95 -96 384 0
-95 -96 -384 0
97 98 -385 0
-97 98 385 0
97 -98 385 0
-97 -98 -385 0
99 100 -386 0
-99 100 386 0
99 -100 386 0
-99 -100 -386 0
101 102 -387 0
-101 102 387 0
101 -102 387 0
-101 -102 -387 0
103 104 -388 0
-103 104 388 0
103 -104 388 0
-103 -104 -388 0
105 106 -389 0
-105 106 389 0
105 -106 389 0
-105 -106 -389 0
107 108 -390 0
-107 108 390 0
107 -108 390 0
-107 -108 -390 0
109 110 -391 0
-109 110 391 0
109 -110 391 0
-109 -110 -391 0
111 112 -392 0
-111 112 392 0
111 -112 392 0
-111 -112 -392 0
113 114 -393 0
-113 114 393 0
113 -114 393 0
-113 -114 -393 0
115 116 -394 0
-115 116 394 0
115 -116 394 0
-115 -116 -394 0
117 118 -395 0
-117 118 395 0
117 -118 395 0
-117 -118 -395 0
119 120 -396 0
-119 120 396 0
119 -120 396 0
-119 -120 -396 0
121 122 -397 0
-121 122 397 0
121 -122 397 0
-121 -122 -397 0
123 124 -398 0
-123 124 398 0
123 -124 398 0
-123 -124 -398 0
125 126 -399 0
-125 126 399 0
125 -126 399 0
-125 -126 -399 0
127 128 -400 0
-127 128 400 0
127 -128 400 0
-127 -128 -400 0
129 130 -401 0
-129 130 401 0
129 -130 401 0
-129 -130 -401 0
131 132 -402 0
-131 132 402 0
131 -132 402 0
-131 -132 -402 0
133 134 -403 0
-133 134 403 0
133 -134 403 0
-133 -134 -403 0
135 136 -404 0
-135 136 404 0
135 -136 404 0
-135 -136 -404 0
137 138 -405 0
-137 138 405 0
137 -138 405 0
-137 -138 -405 0
139 140 -406 0
-139 140 406 0
139 -140 406 0
-139 -140 -406 0
141 142 -407 0
-141 142 407 0
141 -142 407 0
-141 -142 -407 0
143 144 -408 0
-143 144 408 0
143 -144 408 0
-143 -144 -408 0
145 146 -409 0
-145 146 409 0
145 -146 409 0
-145 -146 -409 0
147 148 -410 0
-147 148 410 0
147 -148 410 0
-147 -148 -410 0
149 150 -411 0
-149 150 411 0
149 -150 411 0
-149 -150 -411 0
151 152 -412 0
-151 152 412 0
151 -152 412 0
-151 -152 -412 0
153 154 -413 0
-153 154 413 0
153 -154 413 0
-153 -154 -413 0
155 156 -414 0
-155 156 414 0
155 -156 414 0
-155 -156 -414 0
157 158 -415 0
-157 158 415 0
157 -158 415 0
-157 -158 -415 0
159 160 -416 0
-159 160 416 0
159 -160 416 0
-159 -160 -416 0
161 162 -417 0
-161 162 417 0
161 -162 417 0
-161 -162 -417 0
163 164 -418 0
-163 164 418 0
163 -164 418 0
-163 -164 -418 0
165 166 -419 0
-165 166 419 0
165 -166 419 0
-165 -166 -419 0
167 168 -420 0
-167 168 420 0
167 -168 420 0
-167 -168 -420 0
169 170 -421 0
-169 170 421 0
169 -170 421 0
-169 -170 -421 0
171 172 -422 0
-171 172 422 0
171 -172 422 0
-171 -172 -422 0
173 174 -423 0
-173 174 423 0
173 -174 423 0
-173 -174 -423 0
175 176 -424 0
-175 176 424 0
175 -176 424 0
-175 -176 -424 0
177 178 -425 0
-177 178 425 0
177 -178 425 0
-177 -178 -425 0
179 180 -426 0
-179 180 426 0
179 -180 426 0
-179 -180 -426 0
181 182 -427 0
-181 182 427 0
181 -182 427 0
-181 -182 -427 0
183 184 -428 0
-183 184 428 0
183 -184 428 0
-183 -184 -428 0
185 186 -429 0
-185 186 429 0
185 -186 429 0
-185 -186 -429 0
187 188 -430 0
-187 188 430 0
187 -188 430 0
-187 -188 -430 0
189 190 -431 0
-189 190 431 0
189 -190 431 0
-189 -190 -431 0
191 192 -432 0
-191 192 432 0
191 -192 432 0
-191 -192 -432 0
193 194 -433 0
-193 194 433 0
193 -194 433 0
-193 -194 -433 0
195 196 -434 0
-195 196 434 0
195 -196 434 0
-195 -196 -434 0
197 198 -435 0
-197 198 435 0
197 -198 435 0
-197 -198 -435 0
199 200 -436 0
-199 200 436 0
199 -200 436 0
-199 -200 -436 0
201 202 -437 0
-201 202 437 0
201 -202 437 0
-201 -202 -437 0
203 204 -438 0
-203 204 438 0
203 -204 438 0
-203 -204 -438 0
205 206 -439 0
-205 206 439 0
205 -206 439 0
-205 -206 -439 0
207 208 -440 0
-207 208 440 0
207 -208 440 0
-207 -208 -440 0
209 210 -441 0
-209 210 441 0
209 -210 441 0
-209 -210 -441 0
211 212 -442 0
-211 212 442 0
211 -212 442 0
-211 -212 -442 0
213 214 -443 0
-213 214 443 0
213 -214 443 0
-213 -214 -443 0
215 216 -444 0
-215 216 444 0
215 -216 444 0
-215 -216 -444 0
217 218 -445 0
-217 218 445 0
217 -218 445 0
-217 -218 -445 0
219 220 -446 0
-219 220 446 0
219 -220 446 0
-219 -220 -446 0
221 222 -447 0
-221 222 447 0
221 -222 447 0
-221 -222 -447 0
223 224 -448 0
-223 224 448 0
223 -224 448 0
-223 -224 -448 0
225 226 -449 0
-225 226 449 0
225 -226 449 0
-225 -226 -449 0
227 228 -450 0
-227 228 450 0
227 -228 450 0
-227 -228 -450 0
229 230 -451 0
-229 230 451 0
229 -230 451 0
-229 -230 -451 0
231 232 -452 0
-231 232 452 0
231 -232 452 0
-231 -232 -452 0
233 234 -453 0
-233 234 453 0
233 -234 453 0
-233 -234 -453 0
235 236 -454 0
-235 236 454 0
235 -236 454 0
-235 -236 -454 0
237 238 -455 0
-237 238 455 0
237 -238 455 0
-237 -238 -455 0
239 240 -456 0
-239 240 456 0
239 -240 456 0
-239 -240 -456 0
241 242 -457 0
-241 242 457 0
241 -242 457 0
-241 -242 -457 0
243 244 -458 0
-243 244 458 0
243 -244 458 0
-243 -244 -458 0
245 246 -459 0
-245 246 459 0
245 -246 459 0
-245 -246 -459 0
247 248 -460 0
-247 248 460 0
247 -248 460 0
-247 -248 -460 0
249 250 -461 0
-249 250 461 0
249 -250 461 0
-249 -250 -461 0
251 252 -462 0
-251 252 462 0
251 -252 462 0
-251 -252 -462 0
253 254 -463 0
-253 254 463 0
253 -254 463 0
-253 -254 -463 0
255 256 -464 0
-255 256 464 0
255 -256 464 0
-255 -256 -464 0
257 258 -465 0
-257 258 465 0
257 -258 465 0
-257 -258 -465 0
259 260 -466 0
-259 260 466 0
259 -260 466 0
-259 -260 -466 0
261 262 -467 0
-261 262 467 0
261 -262 467 0
-261 -262 -467 0
263 264 -468 0
-263 264 468 0
263 -264 468 0
-263 -264 -468 0
265 266 -469 0
-265 266 469 0
265 -266 469 0
-265 -266 -469 0
267 268 -470 0
-267 268 470 0
267 -268 470 0
-267 -268 -470 0
269 270 -471 0
-269 270 471 0
269 -270 471 0
-269 -270 -471 0
271 272 -472 0
-271 272 472 0
271 -272 472 0
-271 -272 -472 0
273 274 -473 0
-273 274 473 0
273 -274 473 0
-273 -274 -473 0
275 276 -474 0
-275 276 474 0
275 -276 474 0
-275 -276 -474 0
277 278 -475 0
-277 278 475 0
277 -278 475 0
-277 -278 -475 0
279 280 -476 0
-279 280 476 0
279 -280 476 0
-279 -280 -476 0
281 282 -477 0
-281 282 477 0
281 -282 477 0
-281 -282 -477 0
283 284 -478 0
-283 284 478 0
283 -284 478 0
-283 -284 -478 0
285 286 -479 0
-285 286 479 0
285 -286 479 0
-285 -286 -479 0
287 288 -480 0
-287 288 480 0
287 -288 480 0
-287 -288 -480 0
289 290 -481 0
-289 290 481 0
289 -290 481 0
-289 -290 -481 0
291 292 -482 0
-291 292 482 0
291 -292 482 0
-291 -292 -482 0
293 294 -483 0
-293 294 483 0
293 -294 483 0
-293 -294 -483 0
295 296 -484 0
-295 296 484 0
295 -296 484 0
-295 -296 -484 0
297 298 -485 0
-297 298 485 0
297 -298 485 0
-297 -298 -485 0
299 300 -486 0
-299 300 486 0
299 -300 486 0
-299 -300 -486 0
301 302 -487 0
-301 302 487 0
301 -302 487 0
-301 -302 -487 0
303 304 -488 0
-303 304 488 0
303 -304 488 0
-303 -304 -488 0
305 306 -489 0
-305 306 489 0
305 -306 489 0
-305 -306 -489 0
307 308 -490 0
-307 308 490 0
307 -308 490 0
-307 -308 -490 0
309 310 -491 0
-309 310 491 0
309 -310 491 0
-309 -310 -491 0
311 312 -492 0
-311 312 492 0
311 -312 492 0
-311 -312 -492 0
313 314 -493 0
-313 314 493 0
313 -314 493 0
-313 -314 -493 0
315 316 -494 0
-315 316 494 0
315 -316 494 0
-315 -316 -494 0
317 318 -495 0
-317 318 495 0
317 -318 495 0
-317 -318 -495 0
319 320 -496 0
-319 320 496 0
319 -320 496 0
-319 -320 -496 0
321 322 -497 0
-321 322 497 0
321 -322 497 0
-321 -322 -497 0
323 324 -498 0
-323 324 498 0
323 -324 498 0
-323 -324 -498 0
325 326 -499 0
-325 326 499 0
325 -326 499 0
-325 -326 -499 0
327 328 -500 0
-327 328 500 0
327 -328 500 0
-327 -328 -500 0
329 330 -501 0
-329 330 501 0
329 -330 501 0
-329 -330 -501 0
331 332 -502 0
-331 332 502 0
331 -332 502 0
-331 -332 -502 0
337 338 -503 0
-337 338 503 0
337 -338 503 0
-337 -338 -503 0
339 340 -504 0
-339 340 504 0
339 -340 504 0
-339 -340 -504 0
341 342 -505 0
-341 342 505 0
341 -342 505 0
-341 -342 -505 0
343 344 -506 0
-343 344 506 0
343 -344 506 0
-343 -344 -506 0
345 346 -507 0
-345 346 507 0
345 -346 507 0
-345 -346 -507 0
347 348 -508 0
-347 348 508 0
347 -348 508 0
-347 -348 -508 0
349 350 -509 0
-349 350 509 0
349 -350 509 0
-349 -350 -509 0
351 352 -510 0
-351 352 510 0
351 -352 510 0
-351 -352 -510 0
353 354 -511 0
-353 354 511 0
353 -354 511 0
-353 -354 -511 0
355 356 -512 0
-355 356 512 0
355 -356 512 0
-355 -356 -512 0
357 358 -513 0
-357 358 513 0
357 -358 513 0
-357 -358 -513 0
359 360 -514 0
-359 360 514 0
359 -360 514 0
-359 -360 -514 0
361 362 -515 0
-361 362 515 0
361 -362 515 0
-361 -362 -515 0
363 364 -516 0
-363 364 516 0
363 -364 516 0
-363 -364 -516 0
365 366 -517 0
-365 366 517 0
365 -366 517 0
-365 -366 -517 0
367 368 -518 0
-367 368 518 0
367 -368 518 0
-367 -368 -518 0
369 370 -519 0
-369 370 519 0
369 -370 519 0
-369 -370 -519 0
371 372 -520 0
-371 372 520 0
371 -372 520 0
-371 -372 -520 0
373 374 -521 0
-373 374 521 0
373 -374 521 0
-373 -374 -521 0
375 376 -522 0
-375 376 522 0
375 -376 522 0
-375 -376 -522 0
377 378 -523 0
-377 378 523 0
377 -378 523 0
-377 -378 -523 0
379 380 -524 0
-379 380 524 0
379 -380 524 0
-379 -380 -524 0
381 382 -525 0
-381 382 525 0
381 -382 525 0
-381 -382 -525 0
383 384 -526 0
-383 384 526 0
383 -384 526 0
-383 -384 -526 0
385 386 -527 0
-385 386 527 0
385 -386 527 0
-385 -386 -527 0
387 388 -528 0
-387 388 528 0
387 -388 528 0
-387 -388 -528 0
389 390 -529 0
-389 390 529 0
389 -390 529 0
-389 -390 -529 0
391 392 -530 0
-391 392 530 0
391 -392 530 0
-391 -392 -530 0
393 394 -531 0
-393 394 531 0
393 -394 531 0
-393 -394 -531 0
395 396 -532 0
-395 396 532 0
395 -396 532 0
-395 -396 -532 0
397 398 -533 0
-397 398 533 0
397 -398 533 0
-397 -398 -533 0
399 400 -534 0
-399 400 534 0
399 -400 534 0
-399 -400 -534 0
401 402 -535 0
-401 402 535 0
401 -402 535 0
-401 -402 -535 0
403 404 -536 0
-403 404 536 0
403 -404 536 0
-403 -404 -536 0
405 406 -537 0
-405 406 537 0
405 -406 537 0
-405 -406 -537 0
407 408 -538 0
-407 408 538 0
407 -408 538 0
-407 -408 -538 0
409 410 -539 0
-409 410 539 0
409 -410 539 0
-409 -410 -539 0
411 412 -540 0
-411 412 540 0
411 -412 540 0
-411 -412 -540 0
413 414 -541 0
-413 414 541 0
413 -414 541 0
-413 -414 -541 0
415 416 -542 0
-415 416 542 0
415 -416 542 0
-415 -416 -542 0
417 418 -543 0
-417 418 543 0
417 -418 543 0
-417 -418 -543 0
419 420 -544 0
-419 420 544 0
419 -420 544 0
-419 -420 -544 0
421 422 -545 0
-421 422 545 0
421 -422 545 0
-421 -422 -545 0
423 424 -546 0
-423 424 546 0
423 -424 546 0
-423 -424 -546 0
425 426 -547 0
-425 426 547 0
425 -426 547 0
-425 -426 -547 0
427 428 -548 0
-427 428 548 0
427 -428 548 0
-427 -428 -548 0
429 430 -549 0
-429 430 549 0
429 -430 549 0
-429 -430 -549 0
431 432 -550 0
-431 432 550 0
431 -432 550 0
-431 -432 -550 0
433 434 -551 0
-433 434 551 0
433 -434 551 0
-433 -434 -551 0
435 436 -552 0
-435 436 552 0
435 -436 552 0
-435 -436 -552 0
437 438 -553 0
-437 438 553 0
437 -438 553 0
-437 -438 -553 0
439 440 -554 0
-439 440 554 0
439 -440 554 0
-439 -440 -554 0
441 442 -555 0
-441 442 555 0
441 -442 555 0
-441 -442 -555 0
443 444 -556 0
-443 444 556 0
443 -444 556 0
-443 -444 -556 0
445 446 -557 0
-445 446 557 0
445 -446 557 0
-445 -446 -557 0
447 448 -558 0
-447 448 558 0
447 -448 558 0
-447 -448 -558 0
449 450 -559 0
-449 450 559 0
449 -450 559 0
-449 -450 -559 0
451 452 -560 0
-451 452 560 0
451 -452 560 0
-451 -452 -560 0
453 454 -561 0
-453 454 561 0
453 -454 561 0
-453 -454 -561 0
455 456 -562 0
-455 456 562 0
455 -456 562 0
-455 -456 -562 0
457 458 -563 0
-457 458 563 0
457 -458 563 0
-457 -458 -563 0
459 460 -564 0
-459 460 564 0
459 -460 564 0
-459 -460 -564 0
461 462 -565 0
-461 462 565 0
461 -462 565 0
-461 -462 -565 0
463 464 -566 0
-463 464 566 0
463 -464 566 0
-463 -464 -566 0
465 466 -567 0
-465 466 567 0
465 -466 567 0
-465 -466 -567 0
467 468 -568 0
-467 468 568 0
467 -468 568 0
-467 -468 -568 0
469 470 -569 0
-469 470 569 0
469 -470 569 0
-469 -470 -569 0
471 472 -570 0
-471 472 570 0
471 -472 570 0
-471 -472 -570 0
473 474 -571 0
-473 474 571 0
473 -474 571 0
-473 -474 -571 0
475 476 -572 0
-475 476 572 0
475 -476 572 0
-475 -476 -572 0
477 478 -573 0
-477 478 573 0
477 -478 573 0
-477 -478 -573 0
479 480 -574 0
-479 480 574 0
479 -480 574 0
-479 -480 -574 0
481 482 -575 0
-481 482 575 0
481 -482 575 0
-481 -482 -575 0
483 484 -576 0
-483 484 576 0
483 -484 576 0
-483 -484 -576 0
485 486 -577 0
-485 486 577 0
485 -486 577 0
-485 -486 -577 0
487 488 -578 0
-487 488 578 0
487 -488 578 0
-487 -488 -578 0
489 490 -579 0
-489 490 579 0
489 -490 579 0
-489 -490 -579 0
491 492 -580 0
-491 492 580 0
491 -492 580 0
-491 -492 -580 0
493 494 -581 0
-493 494 581 0
493 -494 581 0
-493 -494 -581 0
495 496 -582 0
-495 496 582 0
495 -496 582 0
-495 -496 -582 0
497 498 -583 0
-497 498 583 0
497 -498 583 0
-497 -498 -583 0
499 500 -584 0
-499 500 584 0
499 -500 584 0
-499 -500 -584 0
501 502 -585 0
-501 502 585 0
501 -502 585 0
-501 -502 -585 0
503 504 -586 0
-503 504 586 0
503 -504 586 0
-503 -504 -586 0
505 506 -587 0
-505 506 587 0
505 -506 587 0
-505 -506 -587 0
507 508 -588 0
-507 508 588 0
507 -508 588 0
-507 -508 -588 0
509 510 -589 0
-509 510 589 0
509 -510 589 0
-509 -510 -589 0
511 512 -590 0
-511 512 590 0
511 -512 590 0
-511 -512 -590 0
513 514 -591 0
-513 514 591 0
513 -514 591 0
-513 -514 -591 0
515 516 -592 0
-515 516 592 0
515 -516 592 0
-515 -516 -592 0
517 518 -593 0
-517 518 593 0
517 -518 593 0
-517 -518 -593 0
519 520 -594 0
-519 520 594 0
519 -520 594 0
-519 -520 -594 0
521 522 -595 0
-521 522 595 0
521 -522 595 0
-521 -522 -595 0
523 524 -596 0
-523 524 596 0
523 -524 596 0
-523 -524 -596 0
525 526 -597 0
-525 526 597 0
525 -526 597 0
-525 -526 -597 0
527 528 -598 0
-527 528 598 0
527 -528 598 0
-527 -528 -598 0
529 530 -599 0
-529 530 599 0
529 -530 599 0
-529 -530 -599 0
531 532 -600 0
-531 532 600 0
531 -532 600 0
-531 -532 -600 0
533 534 -601 0
-533 534 601 0
533 -534 601 0
-533 -534 -601 0
535 536 -602 0
-535 536 602 0
535 -536 602 0
-535 -536 -602 0
537 538 -603 0
-537 538 603 0
537 -538 603 0
-537 -538 -603 0
539 540 -604 0
-539 540 604 0
539 -540 604 0
-539 -540 -604 0
541 542 -605 0
-541 542 605 0
541 -542 605 0
-541 -542 -605 0
543 544 -606 0
-543 544 606 0
543 -544 606 0
-543 -544 -606 0
545 546 -607 0
-545 546 607 0
545 -546 607 0
-545 -546 -607 0
547 548 -608 0
-547 548 608 0
547 -548 608 0
-547 -548 -608 0
549 550 -609 0
-549 550 609 0
549 -550 609 0
-549 -550 -609 0
551 552 -610 0
-551 552 610 0
551 -552 610 0
-551 -552 -610 0
553 554 -611 0
-553 554 611 0
553 -554 611 0
-553 -554 -611 0
555 556 -612 0
-555 556 612 0
555 -556 612 0
-555 -556 -612 0
557 558 -613 0
-557 558 613 0
557 -558 613 0
-557 -558 -613 0
559 560 -614 0
-559 560 614 0
559 -560 614 0
-559 -560 -614 0
561 562 -615 0
-561 562 615 0
561 -562 615 0
-561 -562 -615 0
563 564 -616 0
-563 564 616 0
563 -564 616 0
-563 -564 -616 0
565 566 -617 0
-565 566 617 0
565 -566 617 0
-565 -566 -617 0
567 568 -618 0
-567 568 618 0
567 -568 618 0
-567 -568 -618 0
569 570 -619 0
-569 570 619 0
569 -570 619 0
-569 -570 -619 0
571 572 -620 0
-571 572 620 0
571 -572 620 0
-571 -572 -620 0
573 574 -621 0
-573 574 621 0
573 -574 621 0
-573 -574 -621 0
575 576 -622 0
-575 576 622 0
575 -576 622 0
-575 -576 -622 0
577 578 -623 0
-577 578 623 0
577 -578 623 0
-577 -578 -623 0
579 580 -624 0
-579 580 624 0
579 -580 624 0
-579 -580 -624 0
581 582 -625 0
-581 582 625 0
581 -582 625 0
-581 -582 -625 0
583 584 -626 0
-583 584 626 0
583 -584 626 0
-583 -584 -626 0
585 333 -627 0
-585 333 627 0
585 -333 627 0
-585 -333 -627 0
586 587 -628 0
-586 587 628 0
586 -587 628 0
-586 -587 -628 0
588 589 -629 0
-588 589 629 0
588 -589 629 0
-588 -589 -629 0
590 591 -630 0
-590 591 630 0
590 -591 630 0
-590 -591 -630 0
592 593 -631 0
-592 593 631 0
592 -593 631 0
-592 -593 -631 0
594 595 -632 0
-594 595 632 0
594 -595 632 0
-594 -595 -632 0
596 597 -633 0
-596 597 633 0
596 -597 633 0
-596 -597 -633 0
598 599 -634 0
-598 599 634 0
598 -599 634 0
-598 -599 -634 0
600 601 -635 0
-600 601 635 0
600 -601 635 0
-600 -601 -635 0
602 603 -636 0
-602 603 636 0
602 -603 636 0
-602 -603 -636 0
604 605 -637 0
-604 605 637 0
604 -605 637 0
-604 -605 -637 0
606 607 -638 0
-606 607 638 0
606 -607 638 0
-606 -607 -638 0
608 609 -639 0
-608 609 639 0
608 -609 639 0
-608 -609 -639 0
610 611 -640 0
-610 611 640 0
610 -611 640 0
-610 -611 -640 0
612 613 -641 0
-612 613 641 0
612 -613 641 0
-612 -613 -641 0
614 615 -642 0
-614 615 642 0
614 -615 642 0
-614 -615 -642 0
616 617 -643 0
-616 617 643 0
616 -617 643 0
-616 -617 -643 0
618 619 -644 0
-618 619 644 0
618 -619 644 0
-618 -619 -644 0
620 621 -645 0
-620 621 645 0
620 -621 645 0
-620 -621 -645 0
622 623 -646 0
-622 623 646 0
622 -623 646 0
-622 -623 -646 0
624 625 -647 0
-624 625 647 0
624 -625 647 0
-624 -625 -647 0
626 627 -648 0
-626 627 648 0
626 -627 648 0
-626 -627 -648 0
628 629 -649 0
-628 629 649 0
628 -629 649 0
-628 -629 -649 0
630 631 -650 0
-630 631 650 0
630 -631 650 0
-630 -631 -650 0
632 633 -651 0
-632 633 651 0
632 -633 651 0
-632 -633 -651 0
634 635 -652 0
-634 635 652 0
634 -635 652 0
-634 -635 -652 0
636 637 -653 0
-636 637 653 0
636 -637 653 0
-636 -637 -653 0
638 639 -654 0
-638 639 654 0
638 -639 654 0
-638 -639 -654 0
640 641 -655 0
-640 641 655 0
640 -641 655 0
-640 -641 -655 0
642 643 -656 0
-642 643 656 0
642 -643 656 0
-642 -643 -656 0
644 645 -657 0
-644 645 657 0
644 -645 657 0
-644 -645 -657 0
646 647 -658 0
-646 647 658 0
646 -647 658 0
-646 -647 -658 0
649 650 -659 0
-649 650 659 0
649 -650 659 0
-649 -650 -659 0
651 652 -660 0
-651 652 660 0
651 -652 660 0
-651 -652 -660 0
653 654 -661 0
-653 654 661 0
653 -654 661 0
-653 -654 -661 0
655 656 -662 0
-655 656 662 0
655 -656 662 0
-655 -656 -662 0
657 658 -663 0
-657 658 663 0
657 -658 663 0
-657 -658 -663 0
659 660 -664 0
-659 660 664 0
659 -660 664 0
-659 -660 -664 0
661 662 -665 0
-661 662 665 0
661 -662 665 0
-661 -662 -665 0
663 648 -666 0
-663 648 666 0
663 -648 666 0
-663 -648 -666 0
664 665 -667 0
-664 665 667 0
664 -665 667 0
-664 -665 -667 0
667 666 -334 0
-667 666 334 0
667 -666 334 0
-667 -666 -334 0
